language ESSENCE' 1.0
$ loaded file: carseqdata/csplib-instance-70
letting numcars=200
letting numclasses=27
letting numoptions=5
letting optMax=[1, 2, 1, 2, 1]
letting windowSize=[2, 3, 3, 5, 5]
letting numberPerClass=[11, 9, 36, 20, 2, 21, 9, 4, 7, 9, 2, 10, 3, 4, 2, 7, 3, 1, 6, 12, 3, 5, 1, 2, 2, 1, 8]
letting optionsRequired=[[1, 0, 1, 0, 0], [1, 0, 0, 1, 0], [0, 1, 0, 0, 0], [0, 1, 0, 1, 0], [1, 0, 0, 1, 1], [1, 1, 0, 0, 0], [0, 0, 1, 0, 0], [1, 1, 1, 1, 0], [0, 0, 0, 0, 1], [0, 1, 1, 0, 0], [1, 0, 1, 0, 1], [1, 1, 0, 1, 0], [0, 0, 1, 0, 1], [1, 1, 0, 0, 1], [1, 1, 1, 0, 1], [0, 0, 1, 1, 0], [1, 0, 0, 0, 1], [0, 0, 0, 1, 1], [0, 0, 0, 1, 0], [1, 0, 0, 0, 0], [0, 1, 1, 1, 0], [1, 0, 1, 1, 0], [0, 1, 1, 0, 1], [1, 1, 0, 1, 1], [1, 1, 1, 0, 0], [0, 0, 1, 0, 0], [0, 1, 0, 0, 0]]
